59 






































































































57 16 38 58 72 2 
35 0 5 22 43 42 
18 12 62 60 45 4 
23 29 65 17 46 67 21 
48 1 11 33 15 40 10 
36 50 56 76 26 51 27 
47 14 20 8 9 31 7 
64 19 63 49 44 6 70 
54 52 39 66 55 3 
34 75 74 32 24 73 
30 61 71 28 68 13 69 
37 41 53 25 
